(set-info :status sat)
(declare-const symbol_216 (_ BitVec 32))
(declare-const symbol_140 (_ BitVec 32))
(declare-const symbol_240 (_ BitVec 32))
(declare-const symbol_222 (_ BitVec 32))
(declare-const symbol_35 (_ BitVec 32))
(declare-const symbol_226 (_ BitVec 32))
(declare-const symbol_125 (_ BitVec 32))
(declare-const symbol_156 (_ BitVec 32))
(declare-const symbol_110 (_ BitVec 32))
(declare-const symbol_91 (_ BitVec 32))
(declare-const symbol_198 (_ BitVec 32))
(declare-const symbol_58 (_ BitVec 32))
(declare-const symbol_152 (_ BitVec 32))
(declare-const symbol_257 (_ BitVec 32))
(declare-const symbol_247 (_ BitVec 32))
(declare-const symbol_224 (_ BitVec 32))
(declare-const symbol_178 (_ BitVec 32))
(declare-const symbol_272 (_ BitVec 32))
(declare-const symbol_131 (_ BitVec 32))
(declare-const symbol_289 (_ BitVec 32))
(declare-const symbol_77 (_ BitVec 32))
(declare-const symbol_60 (_ BitVec 32))
(declare-const symbol_26 (_ BitVec 32))
(declare-const symbol_28 (_ BitVec 32))
(declare-const symbol_158 (_ BitVec 32))
(declare-const symbol_29 (_ BitVec 32))
(declare-const symbol_166 (_ BitVec 32))
(declare-const symbol_44 (_ BitVec 32))
(declare-const symbol_251 (_ BitVec 32))
(declare-const symbol_103 (_ BitVec 32))
(declare-const symbol_181 (_ BitVec 32))
(declare-const symbol_47 (_ BitVec 32))
(declare-const symbol_255 (_ BitVec 32))
(declare-const symbol_52 (_ BitVec 32))
(declare-const symbol_16 (_ BitVec 32))
(declare-const symbol_267 (_ BitVec 32))
(declare-const symbol_265 (_ BitVec 32))
(declare-const symbol_95 (_ BitVec 32))
(declare-const symbol_14 (_ BitVec 32))
(declare-const symbol_117 (_ BitVec 32))
(declare-const symbol_24 (_ BitVec 32))
(declare-const symbol_1 (_ BitVec 32))
(declare-const symbol_185 (_ BitVec 32))
(declare-const symbol_74 (_ BitVec 32))
(declare-const symbol_22 (_ BitVec 32))
(declare-const symbol_281 (_ BitVec 32))
(declare-const symbol_176 (_ BitVec 32))
(declare-const symbol_234 (_ BitVec 32))
(declare-const symbol_79 (_ BitVec 32))
(declare-const symbol_62 (_ BitVec 32))
(declare-const symbol_228 (_ BitVec 32))
(declare-const symbol_50 (_ BitVec 32))
(declare-const symbol_287 (_ BitVec 32))
(declare-const symbol_274 (_ BitVec 32))
(declare-const symbol_200 (_ BitVec 32))
(declare-const symbol_278 (_ BitVec 32))
(declare-const symbol_136 (_ BitVec 32))
(declare-const symbol_21 (_ BitVec 32))
(declare-const symbol_19 (_ BitVec 32))
(declare-const symbol_43 (_ BitVec 32))
(declare-const symbol_218 (_ BitVec 32))
(declare-const symbol_93 (_ BitVec 32))
(declare-const symbol_101 (_ BitVec 32))
(declare-const symbol_154 (_ BitVec 32))
(declare-const symbol_31 (_ BitVec 32))
(declare-const symbol_212 (_ BitVec 32))
(declare-const symbol_208 (_ BitVec 32))
(declare-const symbol_194 (_ BitVec 32))
(declare-const symbol_242 (_ BitVec 32))
(declare-const symbol_39 (_ BitVec 32))
(declare-const symbol_210 (_ BitVec 32))
(declare-const symbol_12 (_ BitVec 32))
(declare-const symbol_238 (_ BitVec 32))
(declare-const symbol_119 (_ BitVec 32))
(declare-const symbol_70 (_ BitVec 32))
(declare-const symbol_261 (_ BitVec 32))
(declare-const symbol_187 (_ BitVec 32))
(declare-const symbol_232 (_ BitVec 32))
(declare-const symbol_68 (_ BitVec 32))
(declare-const symbol_162 (_ BitVec 32))
(declare-const symbol_150 (_ BitVec 32))
(declare-const symbol_160 (_ BitVec 32))
(declare-const symbol_144 (_ BitVec 32))
(declare-const symbol_134 (_ BitVec 32))
(declare-const symbol_112 (_ BitVec 32))
(declare-const symbol_283 (_ BitVec 32))
(declare-const symbol_33 (_ BitVec 32))
(declare-const symbol_164 (_ BitVec 32))
(declare-const symbol_253 (_ BitVec 32))
(declare-const symbol_63 (_ BitVec 32))
(declare-const symbol_204 (_ BitVec 32))
(declare-const symbol_168 (_ BitVec 32))
(declare-const symbol_116 (_ BitVec 32))
(declare-const symbol_85 (_ BitVec 32))
(declare-const symbol_220 (_ BitVec 32))
(declare-const symbol_172 (_ BitVec 32))
(declare-const symbol_10 (_ BitVec 32))
(declare-const symbol_291 (_ BitVec 32))
(declare-const symbol_249 (_ BitVec 32))
(declare-const symbol_0 (_ BitVec 32))
(declare-const symbol_230 (_ BitVec 32))
(declare-const symbol_259 (_ BitVec 32))
(declare-const symbol_192 (_ BitVec 32))
(declare-const symbol_65 (_ BitVec 32))
(declare-const symbol_183 (_ BitVec 32))
(declare-const symbol_108 (_ BitVec 32))
(declare-const symbol_285 (_ BitVec 32))
(declare-const symbol_270 (_ BitVec 32))
(declare-const symbol_133 (_ BitVec 32))
(declare-const symbol_3 (_ BitVec 32))
(declare-const symbol_123 (_ BitVec 32))
(declare-const symbol_236 (_ BitVec 32))
(declare-const symbol_196 (_ BitVec 32))
(declare-const symbol_105 (_ BitVec 32))
(declare-const symbol_6 (_ BitVec 32))
(declare-const symbol_263 (_ BitVec 32))
(declare-const symbol_127 (_ BitVec 32))
(declare-const symbol_202 (_ BitVec 32))
(declare-const symbol_72 (_ BitVec 32))
(declare-const symbol_41 (_ BitVec 32))
(declare-const symbol_83 (_ BitVec 32))
(declare-const symbol_97 (_ BitVec 32))
(declare-const symbol_170 (_ BitVec 32))
(declare-const symbol_37 (_ BitVec 32))
(declare-const symbol_190 (_ BitVec 32))
(declare-const symbol_174 (_ BitVec 32))
(declare-const symbol_99 (_ BitVec 32))
(declare-const symbol_107 (_ BitVec 32))
(declare-const symbol_142 (_ BitVec 32))
(declare-const symbol_89 (_ BitVec 32))
(declare-const symbol_206 (_ BitVec 32))
(declare-const symbol_121 (_ BitVec 32))
(declare-const symbol_53 (_ BitVec 32))
(declare-const symbol_276 (_ BitVec 32))
(declare-const symbol_279 (_ BitVec 32))
(declare-const symbol_56 (_ BitVec 32))
(declare-const symbol_146 (_ BitVec 32))
(declare-const symbol_148 (_ BitVec 32))
(declare-const symbol_138 (_ BitVec 32))
(declare-const symbol_8 (_ BitVec 32))
(declare-const symbol_129 (_ BitVec 32))
(declare-const symbol_114 (_ BitVec 32))
(declare-const symbol_245 (_ BitVec 32))
(declare-const symbol_81 (_ BitVec 32))
(declare-const symbol_214 (_ BitVec 32))
(declare-const symbol_87 (_ BitVec 32))
(declare-const symbol_48 (_ BitVec 32))
(assert (not (not (= symbol_291 (_ bv15 32)))))
(assert (not (not (= symbol_289 (_ bv15 32)))))
(assert (not (not (= symbol_287 (_ bv15 32)))))
(assert (not (not (= symbol_285 (_ bv15 32)))))
(assert (not (not (= symbol_283 (_ bv15 32)))))
(assert (not (not (= symbol_281 (_ bv15 32)))))
(assert (not (not (= symbol_279 (_ bv15 32)))))
(assert (not (not (= symbol_278 (_ bv15 32)))))
(assert (not (not (= symbol_276 (_ bv15 32)))))
(assert (not (not (= symbol_274 (_ bv15 32)))))
(assert (not (not (= symbol_272 (_ bv15 32)))))
(assert (not (not (= symbol_270 (_ bv15 32)))))
(assert (not (not (= symbol_267 (_ bv15 32)))))
(assert (not (not (= symbol_265 (_ bv15 32)))))
(assert (not (not (= symbol_263 (_ bv15 32)))))
(assert (not (not (= symbol_261 (_ bv15 32)))))
(assert (not (not (= symbol_259 (_ bv15 32)))))
(assert (not (not (= symbol_257 (_ bv15 32)))))
(assert (not (not (= symbol_255 (_ bv15 32)))))
(assert (not (not (= symbol_253 (_ bv15 32)))))
(assert (not (not (= symbol_251 (_ bv15 32)))))
(assert (not (not (= symbol_249 (_ bv15 32)))))
(assert (not (not (= symbol_247 (_ bv15 32)))))
(assert (not (not (= symbol_245 (_ bv15 32)))))
(assert (not (not (= symbol_242 (_ bv15 32)))))
(assert (not (not (= symbol_240 (_ bv15 32)))))
(assert (not (not (= symbol_238 (_ bv15 32)))))
(assert (not (not (= symbol_236 (_ bv15 32)))))
(assert (not (not (= symbol_234 (_ bv15 32)))))
(assert (not (not (= symbol_232 (_ bv15 32)))))
(assert (not (not (= symbol_230 (_ bv15 32)))))
(assert (not (not (= symbol_228 (_ bv15 32)))))
(assert (not (not (= symbol_226 (_ bv15 32)))))
(assert (not (not (= symbol_224 (_ bv15 32)))))
(assert (not (not (= symbol_222 (_ bv15 32)))))
(assert (not (not (= symbol_220 (_ bv15 32)))))
(assert (not (not (= symbol_218 (_ bv15 32)))))
(assert (not (not (= symbol_216 (_ bv15 32)))))
(assert (not (not (= symbol_214 (_ bv15 32)))))
(assert (not (not (= symbol_212 (_ bv15 32)))))
(assert (not (not (= symbol_210 (_ bv15 32)))))
(assert (not (not (= symbol_208 (_ bv15 32)))))
(assert (not (not (= symbol_206 (_ bv15 32)))))
(assert (not (not (= symbol_204 (_ bv15 32)))))
(assert (not (not (= symbol_202 (_ bv15 32)))))
(assert (not (not (= symbol_200 (_ bv15 32)))))
(assert (not (not (= symbol_198 (_ bv15 32)))))
(assert (not (not (= symbol_196 (_ bv15 32)))))
(assert (not (not (= symbol_194 (_ bv15 32)))))
(assert (not (not (= symbol_192 (_ bv15 32)))))
(assert (not (not (= symbol_190 (_ bv15 32)))))
(assert (not (not (= symbol_187 (_ bv15 32)))))
(assert (not (not (= symbol_185 (_ bv15 32)))))
(assert (not (not (= symbol_183 (_ bv15 32)))))
(assert (not (not (= symbol_181 (_ bv15 32)))))
(assert (not (not (= symbol_178 (_ bv15 32)))))
(assert (not (not (= symbol_176 (_ bv15 32)))))
(assert (not (not (= symbol_174 (_ bv15 32)))))
(assert (not (not (= symbol_172 (_ bv15 32)))))
(assert (not (not (= symbol_170 (_ bv15 32)))))
(assert (not (not (= symbol_168 (_ bv15 32)))))
(assert (not (not (= symbol_166 (_ bv15 32)))))
(assert (not (not (= symbol_164 (_ bv15 32)))))
(assert (not (not (= symbol_162 (_ bv15 32)))))
(assert (not (not (= symbol_160 (_ bv15 32)))))
(assert (not (not (= symbol_158 (_ bv15 32)))))
(assert (not (not (= symbol_156 (_ bv15 32)))))
(assert (not (not (= symbol_154 (_ bv15 32)))))
(assert (not (not (= symbol_152 (_ bv15 32)))))
(assert (not (not (= symbol_150 (_ bv15 32)))))
(assert (not (not (= symbol_148 (_ bv15 32)))))
(assert (not (not (= symbol_146 (_ bv15 32)))))
(assert (not (not (= symbol_144 (_ bv15 32)))))
(assert (not (not (= symbol_142 (_ bv15 32)))))
(assert (not (not (= symbol_140 (_ bv15 32)))))
(assert (not (not (= symbol_138 (_ bv15 32)))))
(assert (not (not (= symbol_136 (_ bv15 32)))))
(assert (not (not (= symbol_134 (_ bv15 32)))))
(assert (not (not (= symbol_133 (_ bv15 32)))))
(assert (not (not (= symbol_131 (_ bv15 32)))))
(assert (not (not (= symbol_129 (_ bv15 32)))))
(assert (not (not (= symbol_127 (_ bv15 32)))))
(assert (not (not (= symbol_125 (_ bv15 32)))))
(assert (not (not (= symbol_123 (_ bv15 32)))))
(assert (not (not (= symbol_121 (_ bv15 32)))))
(assert (not (not (= symbol_119 (_ bv15 32)))))
(assert (not (not (= symbol_117 (_ bv15 32)))))
(assert (not (not (= symbol_116 (_ bv15 32)))))
(assert (not (not (= symbol_114 (_ bv15 32)))))
(assert (not (not (= symbol_112 (_ bv15 32)))))
(assert (not (not (= symbol_110 (_ bv15 32)))))
(assert (not (not (= symbol_108 (_ bv15 32)))))
(assert (not (not (= symbol_107 (_ bv15 32)))))
(assert (not (not (= symbol_105 (_ bv15 32)))))
(assert (not (not (= symbol_103 (_ bv15 32)))))
(assert (not (not (= symbol_101 (_ bv15 32)))))
(assert (not (not (= symbol_99 (_ bv15 32)))))
(assert (not (not (= symbol_97 (_ bv15 32)))))
(assert (not (not (= symbol_95 (_ bv15 32)))))
(assert (not (not (= symbol_93 (_ bv15 32)))))
(assert (not (not (= symbol_91 (_ bv15 32)))))
(assert (not (not (= symbol_89 (_ bv15 32)))))
(assert (not (not (= symbol_87 (_ bv15 32)))))
(assert (not (not (= symbol_85 (_ bv15 32)))))
(assert (not (not (= symbol_83 (_ bv15 32)))))
(assert (not (not (= symbol_81 (_ bv15 32)))))
(assert (not (not (= symbol_79 (_ bv15 32)))))
(assert (not (not (= symbol_77 (_ bv15 32)))))
(assert (not (not (= symbol_74 (_ bv15 32)))))
(assert (not (not (= symbol_72 (_ bv15 32)))))
(assert (not (not (= symbol_70 (_ bv15 32)))))
(assert (not (not (= symbol_68 (_ bv15 32)))))
(assert (not (not (= symbol_65 (_ bv15 32)))))
(assert (not (not (= symbol_63 (_ bv15 32)))))
(assert (not (not (= symbol_62 (_ bv15 32)))))
(assert (not (not (= symbol_60 (_ bv15 32)))))
(assert (not (not (= symbol_58 (_ bv15 32)))))
(assert (not (not (= symbol_56 (_ bv15 32)))))
(assert (not (not (= symbol_53 (_ bv15 32)))))
(assert (not (not (= symbol_52 (_ bv15 32)))))
(assert (not (not (= symbol_50 (_ bv15 32)))))
(assert (not (not (= symbol_48 (_ bv15 32)))))
(assert (not (not (= symbol_47 (_ bv15 32)))))
(assert (not (not (= symbol_44 (_ bv15 32)))))
(assert (not (not (= symbol_43 (_ bv15 32)))))
(assert (not (not (= symbol_41 (_ bv15 32)))))
(assert (not (not (= symbol_39 (_ bv15 32)))))
(assert (not (not (= symbol_37 (_ bv15 32)))))
(assert (not (not (= symbol_35 (_ bv15 32)))))
(assert (not (not (= symbol_33 (_ bv15 32)))))
(assert (not (not (= symbol_31 (_ bv15 32)))))
(assert (not (not (= symbol_29 (_ bv15 32)))))
(assert (not (not (= symbol_28 (_ bv15 32)))))
(assert (not (not (= symbol_26 (_ bv15 32)))))
(assert (not (not (= symbol_24 (_ bv15 32)))))
(assert (not (not (= symbol_22 (_ bv15 32)))))
(assert (not (not (= symbol_21 (_ bv15 32)))))
(assert (not (not (= symbol_19 (_ bv15 32)))))
(assert (not (not (= symbol_16 (_ bv15 32)))))
(assert (not (not (= symbol_14 (_ bv15 32)))))
(assert (not (not (= symbol_12 (_ bv15 32)))))
(assert (not (not (= symbol_10 (_ bv15 32)))))
(assert (not (not (= symbol_8 (_ bv15 32)))))
(assert (not (not (= symbol_6 (_ bv15 32)))))
(assert (not (not (= symbol_3 (_ bv15 32)))))
(assert (not (not (= symbol_1 (_ bv15 32)))))
(assert (not (not (= symbol_0 (_ bv15 32)))))
(check-sat)